toulbar2/web/EXAMPLES/latin4.wcsp
latin4 16 4 24 1000
4 4 4 4 4 4 4 4 4 4 4 4 4 4 4 4
4 0 1 2 3 -1 salldiff var 1000
4 4 5 6 7 -1 salldiff var 1000
4 8 9 10 11 -1 salldiff var 1000
4 12 13 14 15 -1 salldiff var 1000
4 0 4 8 12 -1 salldiff var 1000
4 1 5 9 13 -1 salldiff var 1000
4 2 6 10 14 -1 salldiff var 1000
4 3 7 11 15 -1 salldiff var 1000
1 0 0 4
0 0
1 6
2 3
3 6
1 1 0 4
0 1
1 5
2 4
3 6
1 2 0 4
0 3
1 2
2 3
3 8
1 3 0 4
0 1
1 2
2 6
3 7
1 4 0 4
0 9
1 8
2 4
3 5
1 5 0 4
0 6
1 2
2 7
3 7
1 6 0 4
0 9
1 3
2 4
3 7
1 7 0 4
0 7
1 1
2 0
3 7
1 8 0 4
0 0
1 5
2 2
3 5
1 9 0 4
0 5
1 3
2 1
3 6
1 10 0 4
0 7
1 3
2 9
3 8
1 11 0 4
0 3
1 7
2 1
3 6
1 12 0 4
0 5
1 6
2 9
3 3
1 13 0 4
0 8
1 6
2 0
3 3
1 14 0 4
0 1
1 5
2 3
3 1
1 15 0 4
0 8
1 0
2 0
3 1
